LAMMPS Description
8 atoms
8 atom types
25 bonds
25 bond types

0 700 xlo xhi
0 700 ylo yhi
0 700 zlo zhi

Masses

1 1.0
2 10.0
3 50.0
4 18.0
5 110.0
6 23.0
7 5.0
8 80.0

Atoms#full

1 0 1 0.000000 31.273000717163086 35.24399948120117 35.47699737548828
2 0 2 0.000000 21.937999725341797 44.0620002746582 40.06700134277344
3 0 3 0.000000 22.73200035095215 43.0 30.281999588012695
4 0 4 0.000000 22.52899932861328 30.411998748779297 36.65699768066406
5 0 5 0.000000 43.33399963378906 37.09300231933594 26.798999786376953
6 0 6 0.000000 50.79100036621094 26.457000732421875 35.47999954223633
7 0 7 0.000000 41.69300079345703 30.4739990234375 38.5
8 0 8 0.000000 48.779998779296875 34.25400161743164 43.279998779296875

Bonds

1 1 1 2
2 2 1 3
3 3 1 4
4 4 1 5
5 5 1 7
6 6 1 8
7 7 2 3
8 8 2 4
9 9 2 5
10 10 2 7
11 11 2 8
12 12 3 4
13 13 3 5
14 14 3 6
15 15 3 8
16 16 4 5
17 17 4 6
18 18 4 7
19 19 4 8
20 20 5 6
21 21 5 7
22 22 5 8
23 23 6 7
24 24 6 8
25 25 7 8

Bond Coeffs

1 0.10239581606798619 13.636990651829528
2 0.23433551011986536 12.652756196966841
3 0.36452954940245996 10.059731049175136
4 0.1316099351332369 14.973114333098216
5 0.4442412210480853 11.851913336311792
6 0.2849705097853958 19.192757448489846
7 0.3492761519942524 9.874438692388853
8 0.09031216383336003 14.081901221660432
9 0.11271174030395667 26.122703341783225
10 0.07588013017126259 24.02809533097401
11 0.043666272927243295 28.75783584622796
12 0.08365133215391035 14.111682656662307
13 0.06018368283314595 21.71327423665468
14 0.10193804628976244 32.984806146519
15 0.10983519622295289 30.396360319997605
16 0.1469467541609003 23.972149265964607
17 0.22953355131404612 28.56165377575763
18 0.45345113021041555 19.252518129992843
19 0.1554187093288597 27.344837031964325
20 0.07118740154007577 15.623416423659402
21 0.1553007076674393 13.543170990161425
22 0.2295189714121206 17.588125627420833
23 0.5924766865685347 10.393761274798456
24 1.1252820359312499 11.210590423634446
25 1.4155572015033404 9.346782893801866
